p tw 122 134
1 2
2 35
3 14
4 5
5 6
6 7
7 8
8 9
9 10
10 11
11 12
11 17
12 13
13 15
14 25
15 16
16 22
17 18
18 19
19 20
20 21
21 22
22 23
23 24
24 95
25 28
26 27
28 29
29 30
30 31
31 32
32 33
33 34
34 36
35 46
36 37
37 38
38 39
39 40
40 41
41 42
42 43
42 58
43 44
44 45
44 54
45 47
46 57
46 86
47 48
48 49
49 50
50 51
51 52
52 53
53 54
54 55
55 56
56 40
57 68
57 3
58 59
59 60
60 61
61 62
62 63
63 64
64 65
64 80
65 66
66 67
66 76
67 69
68 79
69 70
70 71
71 72
72 73
73 74
74 75
75 76
76 77
77 78
78 62
79 90
80 81
81 82
82 83
83 84
84 85
85 26
86 87
87 88
88 89
89 91
90 101
91 92
92 93
93 94
94 95
95 96
96 97
97 98
97 26
98 99
99 100
100 102
101 112
102 103
103 104
104 105
105 106
106 107
107 108
108 109
109 110
109 113
110 111
111 113
111 121
112 30
113 114
114 115
115 116
115 118
116 117
117 118
117 121
118 119
119 120
120 121
120 4
121 122
122 4
